Version identifier: 20.1.0.0 | 2020-11-10 | 9bedb6d68
Tried aggregator 2 times.
MIP Presolve eliminated 1859 rows and 985 columns.
MIP Presolve modified 4744 coefficients.
Aggregator did 198 substitutions.
Reduced MIP has 2752 rows, 2132 columns, and 9040 nonzeros.
Reduced MIP has 393 binaries, 1739 generals, 0 SOSs, and 0 indicators.
Presolve time = 0.02 sec. (10.77 ticks)
Probing fixed 60 vars, tightened 616 bounds.
Probing time = 0.00 sec. (1.96 ticks)
Tried aggregator 2 times.
Detecting symmetries...
MIP Presolve eliminated 1172 rows and 68 columns.
MIP Presolve modified 161 coefficients.
Aggregator did 6 substitutions.
Reduced MIP has 1574 rows, 2058 columns, and 5144 nonzeros.
Reduced MIP has 581 binaries, 1477 generals, 0 SOSs, and 0 indicators.
Presolve time = 0.02 sec. (7.24 ticks)
Probing time = 0.00 sec. (0.42 ticks)
Clique table members: 65.
MIP emphasis: balance optimality and feasibility.
MIP search method: dynamic search.
Parallel mode: deterministic, using up to 24 threads.
Root relaxation solution time = 0.03 sec. (5.22 ticks)

        Nodes                                         Cuts/
   Node  Left     Objective  IInf  Best Integer    Best Bound    ItCnt     Gap

      0     0        0.0000    71                      0.0000      466         
      0     0        0.0000   102                   Cuts: 164      570         
*     0+    0                           12.0000        0.0000           100.00%
      0     0        0.0000    34       12.0000      Cuts: 54      645    8.33%
      0     0        0.0000   100       12.0000     Cuts: 106      733    8.33%
*     0+    0                           11.0000       11.0000             0.00%
      0     0        cutoff             11.0000       11.0000      733    0.00%
Elapsed time = 2.04 sec. (177.34 ticks, tree = 0.01 MB, solutions = 2)

Implied bound cuts applied:  44
Mixed integer rounding cuts applied:  12
Zero-half cuts applied:  52
Lift and project cuts applied:  12
Gomory fractional cuts applied:  22

Root node processing (before b&c):
  Real time             =    2.04 sec. (177.48 ticks)
Parallel b&c, 24 threads:
  Real time             =    0.00 sec. (0.00 ticks)
  Sync time (average)   =    0.00 sec.
  Wait time (average)   =    0.00 sec.
                          ------------
Total (root+branch&cut) =    2.04 sec. (177.48 ticks)

Solution status = Optimal
Solution LB = 11
Solution UB = 11
Runtime = 2.0408 seconds
	Command being timed: "/home/min/git_repos/CS598MEBProject/CNT-ILP/build/cnt -s 2 ./output/k8_n30/simC_c1_k8_n30_u2_s2_del02.input-left.cnp"
	User time (seconds): 31.23
	System time (seconds): 0.11
	Percent of CPU this job got: 1497%
	Elapsed (wall clock) time (h:mm:ss or m:ss): 0:02.09
	Average shared text size (kbytes): 0
	Average unshared data size (kbytes): 0
	Average stack size (kbytes): 0
	Average total size (kbytes): 0
	Maximum resident set size (kbytes): 120728
	Average resident set size (kbytes): 0
	Major (requiring I/O) page faults: 0
	Minor (reclaiming a frame) page faults: 38558
	Voluntary context switches: 7853
	Involuntary context switches: 4900
	Swaps: 0
	File system inputs: 0
	File system outputs: 16
	Socket messages sent: 0
	Socket messages received: 0
	Signals delivered: 0
	Page size (bytes): 4096
	Exit status: 0
